Medium-instances_NetworkFacilityLocation/2023-03-27_20hr-25min-09sec/Nodes10_Arcs15_LocNodes8/Formulation-1Instance-1.lp
\ Model LocPrice
\ LP format - for model browsing. Use MPS format to capture full model detail.
Maximize
  - 180 x[1] - 188 x[4] - 169 x[5] - 173 x[6] - 199 x[7] - 190 x[8]
   - 199 x[9] - 168 x[10] - 4.300918552535633 Q[1] - 4.37689346114188 Q[4]
   - 3.777842847958207 Q[5] - 3.270193010044823 Q[6]
   - 4.442976680388163 Q[7] - 4.050708644951452 Q[8]
   - 3.620483751117911 Q[9] - 3.971670717663578 Q[10] + [ 2 pi[1] * Q[1]
   + 2 pi[4] * Q[4] + 2 pi[5] * Q[5] + 2 pi[6] * Q[6] + 2 pi[7] * Q[7]
   + 2 pi[8] * Q[8] + 2 pi[9] * Q[9] + 2 pi[10] * Q[10] ] / 2 
Subject To
 R0: Q[1] + Q[4] + Q[5] + Q[6] + Q[7] + Q[8] + Q[9] + Q[10] <= 700
 R1: - 102 x[1] + Q[1] <= 0
 R2: - 100 x[4] + Q[4] <= 0
 R3: - 112 x[5] + Q[5] <= 0
 R4: - 100 x[6] + Q[6] <= 0
 R5: - 167 x[7] + Q[7] <= 0
 R6: - 152 x[8] + Q[8] <= 0
 R7: - 164 x[9] + Q[9] <= 0
 R8: - 125 x[10] + Q[10] <= 0
 node[9]: - Q[9] + f[9,1] + f[9,2] = 0
 node[4]: - Q[4] + f[4,2] - f[6,4] = 0
 node[6]: - Q[6] + f[6,2] - f[1,6] + f[6,4] = 0
 node[8]: - Q[8] + f[8,1] + f[8,10] - f[2,8] - S[8] = 0
 node[1]: - Q[1] - f[2,1] - f[8,1] - f[9,1] - f[10,1] + f[1,5] + f[1,6]
   + D[1] - S[1] = 0
 node[10]: - Q[10] + f[10,1] - f[8,10] + D[10] - S[10] = 0
 node[5]: - Q[5] + f[5,3] - f[1,5] + D[5] - S[5] = 0
 node[7]: - Q[7] + f[7,2] + D[7] - S[7] = 0
 node[2]: f[2,1] - f[3,2] - f[4,2] - f[6,2] - f[7,2] + f[2,8] - f[9,2] = 0
 node[3]: f[3,2] - f[5,3] + D[3] = 0
 Cost_Flow[2,1]: - pi[1] + pi[2] + 1.778975668698001 f[2,1] - mu_f[2,1]
   = -0.6814727806001392
 Cost_Flow[3,2]: - pi[2] + pi[3] + 1.868087031912499 f[3,2] - mu_f[3,2]
   = -1.869561434058127
 Cost_Flow[4,2]: - pi[2] + pi[4] + 0.7155903934181405 f[4,2] - mu_f[4,2]
   = -0.2520460307471545
 Cost_Flow[5,3]: - pi[3] + pi[5] + 1.143059661459522 f[5,3] - mu_f[5,3]
   = -2.497932442960193
 Cost_Flow[6,2]: - pi[2] + pi[6] + 0.6437387821518843 f[6,2] - mu_f[6,2]
   = -2.36129492246605
 Cost_Flow[7,2]: - pi[2] + pi[7] + 1.188600060399394 f[7,2] - mu_f[7,2]
   = -0.7181083289788565
 Cost_Flow[8,1]: - pi[1] + pi[8] + 0.6758224510142665 f[8,1] - mu_f[8,1]
   = -2.629452692432111
 Cost_Flow[9,1]: - pi[1] + pi[9] + 0.7832380010563225 f[9,1] - mu_f[9,1]
   = -0.175704104415583
 Cost_Flow[10,1]: - pi[1] + pi[10] + 1.780548704009585 f[10,1] - mu_f[10,1]
   = -1.008351181636981
 Cost_Flow[1,5]: pi[1] - pi[5] + 1.990193010470648 f[1,5] - mu_f[1,5]
   = -2.846831024813296
 Cost_Flow[1,6]: pi[1] - pi[6] + 1.515457690616583 f[1,6] - mu_f[1,6]
   = -1.492268086462857
 Cost_Flow[6,4]: - pi[4] + pi[6] + 0.8293116987113416 f[6,4] - mu_f[6,4]
   = -2.203450715366188
 Cost_Flow[8,10]: pi[8] - pi[10] + 1.864119373226756 f[8,10] - mu_f[8,10]
   = -0.3447978998427156
 Cost_Flow[2,8]: pi[2] - pi[8] + 1.935852379849293 f[2,8] - mu_f[2,8]
   = -0.0441189148961079
 Cost_Flow[9,2]: - pi[2] + pi[9] + 1.962390080132689 f[9,2] - mu_f[9,2]
   = -2.871630538832891
 Cost_Demand[1]: pi[1] + 3.942113110506498 D[1] - mu_D[1] = 1437
 Cost_Demand[3]: pi[3] + 3.365110168244828 D[3] - mu_D[3] = 1480
 Cost_Demand[5]: pi[5] + 3.10549527957023 D[5] - mu_D[5] = 1434
 Cost_Demand[7]: pi[7] + 3.629108151539709 D[7] - mu_D[7] = 1478
 Cost_Demand[10]: pi[10] + 3.927154553067867 D[10] - mu_D[10] = 1339
 Cost_Supply[1]: - pi[1] + 0.4045518398215282 S[1] - mu_S[1]
   = -1.150279466894839
 Cost_Supply[5]: - pi[5] + 0.1985130445092553 S[5] - mu_S[5]
   = -1.450339366649287
 Cost_Supply[7]: - pi[7] + 0.0907530456191219 S[7] - mu_S[7]
   = -1.796324270287294
 Cost_Supply[8]: - pi[8] + 0.5803323859868507 S[8] - mu_S[8]
   = -1.230642208993747
 Cost_Supply[10]: - pi[10] + 0.2986961328189226 S[10] - mu_S[10]
   = -1.05202130106441
Bounds
Binaries
 x[1] x[4] x[5] x[6] x[7] x[8] x[9] x[10]
SOS
 s0:  S1 :: f[2,1]:1 mu_f[2,1]:2
 s1:  S1 :: f[3,2]:1 mu_f[3,2]:2
 s2:  S1 :: f[4,2]:1 mu_f[4,2]:2
 s3:  S1 :: f[5,3]:1 mu_f[5,3]:2
 s4:  S1 :: f[6,2]:1 mu_f[6,2]:2
 s5:  S1 :: f[7,2]:1 mu_f[7,2]:2
 s6:  S1 :: f[8,1]:1 mu_f[8,1]:2
 s7:  S1 :: f[9,1]:1 mu_f[9,1]:2
 s8:  S1 :: f[10,1]:1 mu_f[10,1]:2
 s9:  S1 :: f[1,5]:1 mu_f[1,5]:2
 s10:  S1 :: f[1,6]:1 mu_f[1,6]:2
 s11:  S1 :: f[6,4]:1 mu_f[6,4]:2
 s12:  S1 :: f[8,10]:1 mu_f[8,10]:2
 s13:  S1 :: f[2,8]:1 mu_f[2,8]:2
 s14:  S1 :: f[9,2]:1 mu_f[9,2]:2
 s15:  S1 :: D[1]:1 mu_D[1]:2
 s16:  S1 :: D[3]:1 mu_D[3]:2
 s17:  S1 :: D[5]:1 mu_D[5]:2
 s18:  S1 :: D[7]:1 mu_D[7]:2
 s19:  S1 :: D[10]:1 mu_D[10]:2
 s20:  S1 :: S[1]:1 mu_S[1]:2
 s21:  S1 :: S[5]:1 mu_S[5]:2
 s22:  S1 :: S[7]:1 mu_S[7]:2
 s23:  S1 :: S[8]:1 mu_S[8]:2
 s24:  S1 :: S[10]:1 mu_S[10]:2
End
